          16
          10
           1           4           8
           2           4           8
           3           7           3
           4           2           8
           5           2           8
           6           2           8
           7           4           3
           8           4           3
           9           4           3
          10           4           3
          11           4           3
          12           3           3
          13           3           3
          14           2           3
          15           2           3
          16           1           2
